
Welcome to IBM(R) ILOG(R) CPLEX(R) Interactive Optimizer 22.1.1.0
  with Simplex, Mixed Integer & Barrier Optimizers
5725-A06 5725-A29 5724-Y48 5724-Y49 5724-Y54 5724-Y55 5655-Y21
Copyright IBM Corp. 1988, 2022.  All Rights Reserved.

Type 'help' for a list of available commands.
Type 'help' followed by a command name for more
information on commands.

CPLEX> Selected objective sense:  MINIMIZE
Selected objective  name:  00000000
Selected RHS        name:  RHS1
Selected bound      name:  BOUND
Problem 'ee.mps' read.
Read time = 0.03 sec. (3.17 ticks)
CPLEX> New value for time limit in seconds: 7200
CPLEX> New value for parallel optimization mode: -1
CPLEX> New value for default parallel thread count: 40
CPLEX> New value for mixed integer optimality gap tolerance: 1e-13
CPLEX> Version identifier: 22.1.1.0 | 2022-11-28 | 9160aff4d
CPXPARAM_Threads                                 40
CPXPARAM_Parallel                                -1
CPXPARAM_TimeLimit                               7200
CPXPARAM_MIP_Tolerances_MIPGap                   1e-13
Found incumbent of value 0.000000 after 0.00 sec. (0.31 ticks)
Tried aggregator 2 times.
MIP Presolve eliminated 183 rows and 2745 columns.
MIP Presolve modified 6090 coefficients.
Aggregator did 713 substitutions.
Reduced MIP has 3636 rows, 7840 columns, and 28952 nonzeros.
Reduced MIP has 7840 binaries, 0 generals, 0 SOSs, and 0 indicators.
Presolve time = 0.07 sec. (69.12 ticks)
Probing fixed 135 vars, tightened 0 bounds.
Probing time = 0.08 sec. (40.08 ticks)
Tried aggregator 2 times.
Detecting symmetries...
MIP Presolve eliminated 41 rows and 186 columns.
MIP Presolve modified 12 coefficients.
Aggregator did 48 substitutions.
Reduced MIP has 3547 rows, 7592 columns, and 28073 nonzeros.
Reduced MIP has 7592 binaries, 0 generals, 0 SOSs, and 0 indicators.
Presolve time = 0.07 sec. (76.26 ticks)
Probing fixed 17 vars, tightened 0 bounds.
Probing time = 0.07 sec. (34.89 ticks)
Clique table members: 18347.
MIP emphasis: balance optimality and feasibility.
MIP search method: dynamic search.
Parallel mode: opportunistic, using up to 40 threads.
Root relaxation solution time = 0.11 sec. (90.09 ticks)

        Nodes                                         Cuts/
   Node  Left     Objective  IInf  Best Integer    Best Bound    ItCnt     Gap

*     0+    0                            0.0000  -1.54000e+13              --- 
*     0+    0                      -6.99000e+12  -1.54000e+13           120.31%
*     0+    0                      -7.20000e+12  -1.54000e+13           113.89%
*     0+    0                      -8.40000e+12  -1.54000e+13            83.33%
      0     0  -1.53900e+13   112  -8.40000e+12  -1.53900e+13     2202   83.21%
*     0+    0                      -1.53900e+13  -1.53900e+13             0.00%
      0     0  -1.53900e+13   196  -1.53900e+13     Cuts: 107     2873    0.00%
      0     0  -1.53900e+13   252  -1.53900e+13     Cuts: 101     3324    0.00%
*     0+    0                      -1.53900e+13  -1.53900e+13             0.00%
*     0+    0                      -1.53900e+13  -1.53900e+13             0.00%
Detecting symmetries...
      0     2  -1.53900e+13   245  -1.53900e+13  -1.53900e+13     3324    0.00%
Elapsed time = 2.46 sec. (1227.91 ticks, tree = 0.02 MB, solutions = 12)
*     2+   11                      -1.53900e+13  -1.53900e+13             0.00%
*     4+   27                      -1.53900e+13  -1.53900e+13             0.00%
     71     9  -1.53900e+13   299  -1.53900e+13  -1.53900e+13     5245    0.00%
    249    77  -1.53900e+13   140  -1.53900e+13  -1.53900e+13    26946    0.00%
    550   440  -1.53900e+13   164  -1.53900e+13  -1.53900e+13   158813    0.00%
    882   216    infeasible        -1.53900e+13  -1.53900e+13    90713    0.00%
   1189   193  -1.53900e+13   169  -1.53900e+13  -1.53900e+13    79226    0.00%
   1480   324  -1.53900e+13   220  -1.53900e+13  -1.53900e+13   123033    0.00%
   1788   576  -1.53900e+13   131  -1.53900e+13  -1.53900e+13   206750    0.00%
   2047   920  -1.53900e+13   330  -1.53900e+13  -1.53900e+13   364285    0.00%
   2254   818        cutoff        -1.53900e+13  -1.53900e+13   327567    0.00%
   3351   902  -1.53900e+13   254  -1.53900e+13  -1.53900e+13   360286    0.00%
Elapsed time = 8.56 sec. (4340.54 ticks, tree = 3.75 MB, solutions = 23)
   4781  1539  -1.53900e+13   243  -1.53900e+13  -1.53900e+13   547308    0.00%
   5778  1554    infeasible        -1.53900e+13  -1.53900e+13   553178    0.00%
   6601  1823  -1.53900e+13   234  -1.53900e+13  -1.53900e+13   645440    0.00%
   7498  2431  -1.53900e+13    68  -1.53900e+13  -1.53900e+13   857208    0.00%
   8453  3562  -1.53900e+13   118  -1.53900e+13  -1.53900e+13  1446532    0.00%
   9182  3164        cutoff        -1.53900e+13  -1.53900e+13  1237841    0.00%
   9653  3180  -1.53900e+13   264  -1.53900e+13  -1.53900e+13  1253437    0.00%
   9861  3573  -1.53900e+13   277  -1.53900e+13  -1.53900e+13  1456788    0.00%
   9986  3724  -1.53900e+13   186  -1.53900e+13  -1.53900e+13  1553355    0.00%

Performing restart 1

Repeating presolve.
Tried aggregator 2 times.
MIP Presolve eliminated 199 rows and 1010 columns.
MIP Presolve modified 1603 coefficients.
Aggregator did 224 substitutions.
Reduced MIP has 3076 rows, 6325 columns, and 23256 nonzeros.
Reduced MIP has 6325 binaries, 0 generals, 0 SOSs, and 0 indicators.
Presolve time = 0.07 sec. (65.05 ticks)
Tried aggregator 1 time.
MIP Presolve eliminated 5 rows and 4 columns.
Reduced MIP has 3071 rows, 6320 columns, and 23243 nonzeros.
Reduced MIP has 6320 binaries, 0 generals, 0 SOSs, and 0 indicators.
Presolve time = 0.03 sec. (26.81 ticks)
Represolve time = 0.23 sec. (143.75 ticks)
  10008     0  -1.53900e+13   393  -1.53900e+13      Cuts: 47  1978901    0.00%
  10008     0  -1.53900e+13   311  -1.53900e+13      Cuts: 74  1979270    0.00%
  10008     0  -1.53900e+13   356  -1.53900e+13      Cuts: 73  1979680    0.00%
  10008     0  -1.53900e+13   407  -1.53900e+13      Cuts: 87  1980179    0.00%
  10008     0  -1.53900e+13   400  -1.53900e+13      Cuts: 64  1980406    0.00%
  10008     0  -1.53900e+13   427  -1.53900e+13      Cuts: 67  1980790    0.00%
  10008     0  -1.53900e+13   424  -1.53900e+13      Cuts: 38  1981119    0.00%
  10008     0  -1.53900e+13   453  -1.53900e+13      Cuts: 57  1981323    0.00%
  10008     0  -1.53900e+13   435  -1.53900e+13      Cuts: 53  1981800    0.00%
  10008     0  -1.53900e+13   444  -1.53900e+13      Cuts: 68  1982007    0.00%
  10008    14        cutoff        -1.53900e+13  -1.53900e+13  1989087    0.00%
Elapsed time = 28.53 sec. (18747.05 ticks, tree = 0.02 MB, solutions = 23)
  10319    15  -1.53900e+13   136  -1.53900e+13  -1.53900e+13  2000181    0.00%

GUB cover cuts applied:  7
Clique cuts applied:  19
Cover cuts applied:  231
Flow cuts applied:  3
Mixed integer rounding cuts applied:  39
Zero-half cuts applied:  55
Lift and project cuts applied:  5
Gomory fractional cuts applied:  19

Root node processing (before b&c):
  Real time             =    1.44 sec. (1212.80 ticks)
Parallel b&c, 40 threads:
  Real time             =   27.85 sec. (19234.87 ticks)
  Sync time (average)   =    4.03 sec.
  Wait time (average)   =    0.15 sec.
                          ------------
Total (root+branch&cut) =   29.29 sec. (20447.67 ticks)

Solution pool: 23 solutions saved.

MIP - Integer optimal solution:  Objective = -1.5389999089e+13
Solution time =   29.41 sec.  Iterations = 2001179  Nodes = 10340
Deterministic time = 20447.71 ticks  (695.19 ticks/sec)

CPLEX> Solution 'p24' written to file 'ee.sol'.
CPLEX> 